2
8
20
1 1.3 1.55 1.75 2.1
8 35 17 43 38 29 11 43 48 19 33 37 5 18 29 25 38 44 15 41 21 22 27 8 23 18 32 6 8 33 5 37 48 39 39 10 19 48 19 6 40 48 7 14 6 44 45 47 11 33 42 38 23 25 43 26 47 45 7 46 24 20 10 29 48 15 30 15 46 7 25 25 11 44 27 11 40 28 22 23 22 31 36 38 28 35 34 14 5 20 38 27 31 6 6 17 34 24 47 23 19 21 36 44 41 19 40 32 21 26 18 7 8 34 14 24 15 17 24 27 41 28 38 41 7 8 36 13 7 44 43 28 35 18 24 38 19 15 34 46 41 22 34 17 22 49 47 13 11 43 38 45 44 39 16 26 46 36 22 14 